(set-logic QF_BV)
(declare-fun _substvar_227_ () (_ BitVec 256))
(assert (and true true (not (= ((_ extract 223 192) _substvar_227_) ((_ extract 191 160) _substvar_227_))) true true true true true true true true true true true true true true true true true true true true true true true true true true true true true true true true true true))
(check-sat)
(exit)
